tsp_instances/TSP50/instance22.tsp
NODE_COORD_SECTION
0 39 175
1 165 106
2 44 63
3 105 1
4 199 168
5 14 179
6 7 184
7 190 33
8 180 59
9 197 137
10 154 180
11 16 62
12 127 49
13 134 187
14 110 182
15 109 141
16 42 164
17 20 174
18 180 99
19 24 11
20 129 96
21 30 133
22 181 91
23 35 169
24 67 55
25 107 174
26 104 129
27 122 199
28 15 146
29 89 133
30 113 51
31 153 190
32 131 42
33 59 39
34 178 197
35 176 131
36 152 128
37 110 117
38 36 7
39 142 43
40 114 148
41 23 16
42 15 50
43 199 71
44 85 125
45 126 116
46 11 36
47 109 182
48 60 36
49 21 72
