tsp_instances/TSP50/instance22.opt.tour
TOUR_SECTION
1
17
45
30
27
38
21
46
16
41
26
48
15
28
14
11
32
35
5
10
36
37
2
19
23
44
9
8
40
33
13
31
4
25
3
34
49
39
20
42
47
43
12
50
22
29
7
6
18
24
-1